17	4
11	13	15	14	
0	0	0	0	0	3	2	3	4	
10	0	10	2	10	2	5	9	
8	0	0	0	1	3	7	8	16	
6	0	5	6	9	2	17	17	
6	0	10	0	0	3	6	10	11	
75	9	0	2	1	2	17	17	
200	0	0	0	8	1	17	
25	0	1	0	4	1	15	
150	0	0	4	0	3	12	14	17	
50	0	0	7	5	3	13	17	17	
200	0	0	9	10	2	17	17	
50	0	0	4	0	2	13	17	
10	0	0	8	0	2	16	17	
3	5	0	0	7	3	17	17	17	
2	8	0	2	0	2	17	17	
7	3	8	9	0	1	17	
0	0	0	0	0	0	
